p tw 169 30421 2 
1 3 
1 4 
1 5 
1 6 
1 7 
1 8 
1 9 
1 10 
1 11 
1 12 
1 13 
1 14 
1 15 
1 27 
1 33 
1 40 
1 45 
1 53 
1 56 
1 66 
1 68 
1 79 
1 83 
1 92 
1 100 
1 105 
1 117 
1 118 
1 129 
1 131 
1 141 
1 144 
1 153 
1 157 
1 164 
2 3 
2 4 
2 5 
2 6 
2 7 
2 8 
2 9 
2 10 
2 11 
2 12 
2 13 
2 15 
2 17 
2 28 
2 35 
2 41 
2 51 
2 53 
2 54 
2 67 
2 76 
2 80 
2 88 
2 93 
2 99 
2 106 
2 111 
2 119 
2 130 
2 132 
2 136 
2 145 
2 146 
2 158 
2 161 
3 4 
3 5 
3 6 
3 7 
3 8 
3 9 
3 10 
3 11 
3 12 
3 13 
3 16 
3 23 
3 29 
3 31 
3 42 
3 47 
3 55 
3 59 
3 68 
3 74 
3 81 
3 84 
3 94 
3 95 
3 106 
3 107 
3 120 
3 128 
3 131 
3 133 
3 146 
3 156 
3 159 
3 168 
4 5 
4 6 
4 7 
4 8 
4 9 
4 10 
4 11 
4 12 
4 13 
4 17 
4 19 
4 30 
4 38 
4 40 
4 43 
4 56 
4 57 
4 69 
4 72 
4 80 
4 82 
4 95 
4 104 
4 108 
4 112 
4 120 
4 121 
4 134 
4 140 
4 147 
4 154 
4 160 
4 165 
5 6 
5 7 
5 8 
5 9 
5 10 
5 11 
5 12 
5 13 
5 16 
5 18 
5 30 
5 31 
5 44 
5 46 
5 57 
5 65 
5 70 
5 77 
5 83 
5 89 
5 92 
5 96 
5 109 
5 114 
5 122 
5 125 
5 135 
5 139 
5 148 
5 149 
5 158 
5 161 
6 7 
6 8 
6 9 
6 10 
6 11 
6 12 
6 13 
6 19 
6 22 
6 32 
6 37 
6 42 
6 45 
6 54 
6 58 
6 71 
6 78 
6 79 
6 84 
6 97 
6 103 
6 109 
6 110 
6 123 
6 127 
6 136 
6 137 
6 149 
6 151 
6 160 
6 162 
7 8 
7 9 
7 10 
7 11 
7 12 
7 13 
7 20 
7 21 
7 28 
7 33 
7 46 
7 50 
7 55 
7 59 
7 72 
7 75 
7 85 
7 90 
7 97 
7 98 
7 105 
7 111 
7 121 
7 124 
7 135 
7 137 
7 150 
7 152 
7 163 
7 169 
8 9 
8 10 
8 11 
8 12 
8 13 
8 14 
8 21 
8 32 
8 34 
8 47 
8 52 
8 60 
8 61 
8 69 
8 73 
8 81 
8 86 
8 93 
8 99 
8 112 
8 115 
8 124 
8 125 
8 138 
8 142 
8 148 
8 151 
8 164 
8 166 
9 10 
9 11 
9 12 
9 13 
9 22 
9 25 
9 35 
9 39 
9 44 
9 48 
9 61 
9 63 
9 66 
9 74 
9 85 
9 87 
9 100 
9 101 
9 110 
9 113 
9 119 
9 126 
9 138 
9 139 
9 147 
9 152 
9 159 
9 165 
10 11 
10 12 
10 13 
10 20 
10 23 
10 27 
10 36 
10 41 
10 49 
10 58 
10 62 
10 70 
10 75 
10 86 
10 88 
10 94 
10 101 
10 108 
10 114 
10 126 
10 127 
10 140 
10 143 
10 153 
10 155 
10 166 
10 167 
11 12 
11 13 
11 24 
11 26 
11 34 
11 37 
11 43 
11 50 
11 62 
11 63 
11 71 
11 76 
11 87 
11 89 
11 98 
11 102 
11 115 
11 116 
11 122 
11 128 
11 133 
11 141 
11 145 
11 154 
11 157 
11 167 
12 13 
12 24 
12 25 
12 36 
12 38 
12 48 
12 51 
12 60 
12 64 
12 67 
12 77 
12 90 
12 91 
12 96 
12 103 
12 107 
12 116 
12 123 
12 129 
12 134 
12 142 
12 144 
12 155 
12 163 
12 168 
13 18 
13 26 
13 29 
13 39 
13 49 
13 52 
13 64 
13 65 
13 73 
13 78 
13 82 
13 91 
13 102 
13 104 
13 113 
13 117 
13 118 
13 130 
13 132 
13 143 
13 150 
13 156 
13 162 
13 169 
14 15 
14 16 
14 17 
14 18 
14 19 
14 20 
14 21 
14 22 
14 23 
14 24 
14 25 
14 26 
14 27 
14 32 
14 40 
14 52 
14 53 
14 61 
14 66 
14 69 
14 79 
14 81 
14 92 
14 93 
14 105 
14 115 
14 118 
14 124 
14 131 
14 142 
14 144 
14 148 
14 157 
14 166 
15 16 
15 17 
15 18 
15 19 
15 20 
15 21 
15 22 
15 23 
15 24 
15 25 
15 26 
15 28 
15 33 
15 41 
15 45 
15 54 
15 56 
15 67 
15 68 
15 80 
15 83 
15 93 
15 100 
15 106 
15 117 
15 119 
15 129 
15 132 
15 141 
15 145 
15 153 
15 158 
15 164 
16 17 
16 18 
16 19 
16 20 
16 21 
16 22 
16 23 
16 24 
16 25 
16 26 
16 29 
16 30 
16 42 
16 46 
16 55 
16 65 
16 68 
16 77 
16 81 
16 89 
16 92 
16 94 
16 107 
16 114 
16 120 
16 125 
16 133 
16 139 
16 146 
16 149 
16 158 
16 159 
17 18 
17 19 
17 20 
17 21 
17 22 
17 23 
17 24 
17 25 
17 26 
17 30 
17 35 
17 43 
17 51 
17 53 
17 56 
17 69 
17 76 
17 82 
17 88 
17 95 
17 99 
17 108 
17 111 
17 121 
17 130 
17 134 
17 136 
17 146 
17 147 
17 160 
17 161 
18 19 
18 20 
18 21 
18 22 
18 23 
18 24 
18 25 
18 26 
18 29 
18 31 
18 44 
18 49 
18 57 
18 64 
18 70 
18 73 
18 82 
18 83 
18 96 
18 102 
18 109 
18 113 
18 118 
18 122 
18 132 
18 135 
18 148 
18 150 
18 161 
18 162 
19 20 
19 21 
19 22 
19 23 
19 24 
19 25 
19 26 
19 32 
19 38 
19 40 
19 45 
19 57 
19 58 
19 71 
19 72 
19 80 
19 84 
19 97 
19 104 
19 110 
19 112 
19 120 
19 123 
19 136 
19 140 
19 149 
19 154 
19 162 
19 165 
20 21 
20 22 
20 23 
20 24 
20 25 
20 26 
20 27 
20 33 
20 41 
20 46 
20 58 
20 59 
20 70 
20 72 
20 85 
20 86 
20 94 
20 98 
20 108 
20 111 
20 124 
20 126 
20 137 
20 143 
20 150 
20 155 
20 163 
20 167 
21 22 
21 23 
21 24 
21 25 
21 26 
21 28 
21 34 
21 47 
21 50 
21 55 
21 60 
21 73 
21 75 
21 86 
21 90 
21 97 
21 99 
21 105 
21 112 
21 121 
21 125 
21 135 
21 138 
21 151 
21 152 
21 164 
21 169 
22 23 
22 24 
22 25 
22 26 
22 35 
22 37 
22 42 
22 48 
22 54 
22 61 
22 74 
22 78 
22 79 
22 87 
22 100 
22 103 
22 109 
22 113 
22 126 
22 127 
22 137 
22 139 
22 151 
22 152 
22 160 
22 165 
23 24 
23 25 
23 26 
23 31 
23 36 
23 47 
23 49 
23 59 
23 62 
23 74 
23 75 
23 84 
23 88 
23 95 
23 101 
23 106 
23 114 
23 127 
23 128 
23 131 
23 140 
23 153 
23 156 
23 166 
23 168 
24 25 
24 26 
24 36 
24 37 
24 48 
24 50 
24 60 
24 63 
24 67 
24 76 
24 89 
24 91 
24 96 
24 102 
24 107 
24 115 
24 123 
24 128 
24 134 
24 141 
24 144 
24 154 
24 163 
24 167 
25 26 
25 38 
25 39 
25 44 
25 51 
25 63 
25 64 
25 66 
25 77 
25 85 
25 90 
25 101 
25 103 
25 110 
25 116 
25 119 
25 129 
25 138 
25 142 
25 147 
25 155 
25 159 
25 168 
26 34 
26 39 
26 43 
26 52 
26 62 
26 65 
26 71 
26 78 
26 87 
26 91 
26 98 
26 104 
26 116 
26 117 
26 122 
26 130 
26 133 
26 143 
26 145 
26 156 
26 157 
26 169 
27 28 
27 29 
27 30 
27 31 
27 32 
27 33 
27 34 
27 35 
27 36 
27 37 
27 38 
27 39 
27 40 
27 41 
27 53 
27 58 
27 66 
27 70 
27 79 
27 86 
27 92 
27 94 
27 105 
27 108 
27 118 
27 126 
27 131 
27 143 
27 144 
27 155 
27 157 
27 167 
28 29 
28 30 
28 31 
28 32 
28 33 
28 34 
28 35 
28 36 
28 37 
28 38 
28 39 
28 41 
28 50 
28 54 
28 55 
28 67 
28 75 
28 80 
28 90 
28 93 
28 97 
28 105 
28 106 
28 119 
28 121 
28 132 
28 135 
28 145 
28 152 
28 158 
28 169 
29 30 
29 31 
29 32 
29 33 
29 34 
29 35 
29 36 
29 37 
29 38 
29 39 
29 42 
29 49 
29 55 
29 64 
29 68 
29 73 
29 81 
29 82 
29 94 
29 102 
29 107 
29 113 
29 118 
29 120 
29 132 
29 133 
29 146 
29 150 
29 159 
29 162 
30 31 
30 32 
30 33 
30 34 
30 35 
30 36 
30 37 
30 38 
30 39 
30 43 
30 46 
30 56 
30 65 
30 69 
30 77 
30 82 
30 89 
30 92 
30 95 
30 108 
30 114 
30 121 
30 125 
30 134 
30 139 
30 147 
30 149 
30 158 
30 160 
31 32 
31 33 
31 34 
31 35 
31 36 
31 37 
31 38 
31 39 
31 44 
31 47 
31 57 
31 59 
31 70 
31 74 
31 83 
31 84 
31 95 
31 96 
31 106 
31 109 
31 122 
31 128 
31 131 
31 135 
31 148 
31 156 
31 161 
31 168 
32 33 
32 34 
32 35 
32 36 
32 37 
32 38 
32 39 
32 45 
32 52 
32 58 
32 61 
32 69 
32 71 
32 81 
32 84 
32 93 
32 97 
32 110 
32 115 
32 123 
32 124 
32 136 
32 142 
32 148 
32 149 
32 162 
32 166 
33 34 
33 35 
33 36 
33 37 
33 38 
33 39 
33 45 
33 46 
33 56 
33 59 
33 68 
33 72 
33 83 
33 85 
33 98 
33 100 
33 111 
33 117 
33 124 
33 129 
33 137 
33 141 
33 150 
33 153 
33 163 
33 164 
34 35 
34 36 
34 37 
34 38 
34 39 
34 43 
34 47 
34 60 
34 62 
34 71 
34 73 
34 86 
34 87 
34 98 
34 99 
34 112 
34 116 
34 122 
34 125 
34 133 
34 138 
34 145 
34 151 
34 157 
34 164 
35 36 
35 37 
35 38 
35 39 
35 48 
35 51 
35 53 
35 61 
35 74 
35 76 
35 87 
35 88 
35 99 
35 100 
35 111 
35 113 
35 126 
35 130 
35 136 
35 139 
35 146 
35 152 
35 161 
35 165 
36 37 
36 38 
36 39 
36 48 
36 49 
36 60 
36 62 
36 67 
36 75 
36 88 
36 91 
36 96 
36 101 
36 107 
36 114 
36 123 
36 127 
36 134 
36 140 
36 144 
36 153 
36 163 
36 166 
37 38 
37 39 
37 42 
37 50 
37 54 
37 63 
37 76 
37 78 
37 79 
37 89 
37 102 
37 103 
37 109 
37 115 
37 127 
37 128 
37 137 
37 141 
37 151 
37 154 
37 160 
37 167 
38 39 
38 40 
38 51 
38 57 
38 64 
38 72 
38 77 
38 80 
38 90 
38 103 
38 104 
38 112 
38 116 
38 120 
38 129 
38 140 
38 142 
38 154 
38 155 
38 165 
38 168 
39 44 
39 52 
39 63 
39 65 
39 66 
39 78 
39 85 
39 91 
39 101 
39 104 
39 110 
39 117 
39 119 
39 130 
39 138 
39 143 
39 147 
39 156 
39 159 
39 169 
40 41 
40 42 
40 43 
40 44 
40 45 
40 46 
40 47 
40 48 
40 49 
40 50 
40 51 
40 52 
40 53 
40 57 
40 66 
40 72 
40 79 
40 80 
40 92 
40 104 
40 105 
40 112 
40 118 
40 120 
40 131 
40 140 
40 144 
40 154 
40 157 
40 165 
41 42 
41 43 
41 44 
41 45 
41 46 
41 47 
41 48 
41 49 
41 50 
41 51 
41 52 
41 54 
41 58 
41 67 
41 70 
41 80 
41 86 
41 93 
41 94 
41 106 
41 108 
41 119 
41 126 
41 132 
41 143 
41 145 
41 155 
41 158 
41 167 
42 43 
42 44 
42 45 
42 46 
42 47 
42 48 
42 49 
42 50 
42 51 
42 52 
42 54 
42 55 
42 68 
42 78 
42 79 
42 81 
42 94 
42 103 
42 107 
42 109 
42 120 
42 127 
42 133 
42 137 
42 146 
42 151 
42 159 
42 160 
43 44 
43 45 
43 46 
43 47 
43 48 
43 49 
43 50 
43 51 
43 52 
43 56 
43 62 
43 69 
43 71 
43 82 
43 87 
43 95 
43 98 
43 108 
43 116 
43 121 
43 122 
43 133 
43 134 
43 145 
43 147 
43 157 
43 160 
44 45 
44 46 
44 47 
44 48 
44 49 
44 50 
44 51 
44 52 
44 57 
44 63 
44 66 
44 70 
44 83 
44 85 
44 96 
44 101 
44 109 
44 110 
44 119 
44 122 
44 135 
44 138 
44 147 
44 148 
44 159 
44 161 
45 46 
45 47 
45 48 
45 49 
45 50 
45 51 
45 52 
45 56 
45 58 
45 68 
45 71 
45 83 
45 84 
45 97 
45 100 
45 110 
45 117 
45 123 
45 129 
45 136 
45 141 
45 149 
45 153 
45 162 
45 164 
46 47 
46 48 
46 49 
46 50 
46 51 
46 52 
46 59 
46 65 
46 72 
46 77 
46 85 
46 89 
46 92 
46 98 
46 111 
46 114 
46 124 
46 125 
46 137 
46 139 
46 149 
46 150 
46 158 
46 163 
47 48 
47 49 
47 50 
47 51 
47 52 
47 59 
47 60 
47 73 
47 74 
47 84 
47 86 
47 95 
47 99 
47 106 
47 112 
47 125 
47 128 
47 131 
47 138 
47 151 
47 156 
47 164 
47 168 
48 49 
48 50 
48 51 
48 52 
48 60 
48 61 
48 67 
48 74 
48 87 
48 91 
48 96 
48 100 
48 107 
48 113 
48 123 
48 126 
48 134 
48 139 
48 144 
48 152 
48 163 
48 165 
49 50 
49 51 
49 52 
49 62 
49 64 
49 73 
49 75 
49 82 
49 88 
49 101 
49 102 
49 113 
49 114 
49 118 
49 127 
49 132 
49 140 
49 150 
49 153 
49 162 
49 166 
50 51 
50 52 
50 55 
50 63 
50 75 
50 76 
50 89 
50 90 
50 97 
50 102 
50 105 
50 115 
50 121 
50 128 
50 135 
50 141 
50 152 
50 154 
50 167 
50 169 
51 52 
51 53 
51 64 
51 76 
51 77 
51 88 
51 90 
51 99 
51 103 
51 111 
51 116 
51 129 
51 130 
51 136 
51 142 
51 146 
51 155 
51 161 
51 168 
52 61 
52 65 
52 69 
52 78 
52 81 
52 91 
52 93 
52 104 
52 115 
52 117 
52 124 
52 130 
52 142 
52 143 
52 148 
52 156 
52 166 
52 169 
53 54 
53 55 
53 56 
53 57 
53 58 
53 59 
53 60 
53 61 
53 62 
53 63 
53 64 
53 65 
53 66 
53 76 
53 79 
53 88 
53 92 
53 99 
53 105 
53 111 
53 118 
53 130 
53 131 
53 136 
53 144 
53 146 
53 157 
53 161 
54 55 
54 56 
54 57 
54 58 
54 59 
54 60 
54 61 
54 62 
54 63 
54 64 
54 65 
54 67 
54 78 
54 79 
54 80 
54 93 
54 103 
54 106 
54 109 
54 119 
54 127 
54 132 
54 137 
54 145 
54 151 
54 158 
54 160 
55 56 
55 57 
55 58 
55 59 
55 60 
55 61 
55 62 
55 63 
55 64 
55 65 
55 68 
55 75 
55 81 
55 90 
55 94 
55 97 
55 105 
55 107 
55 120 
55 121 
55 133 
55 135 
55 146 
55 152 
55 159 
55 169 
56 57 
56 58 
56 59 
56 60 
56 61 
56 62 
56 63 
56 64 
56 65 
56 68 
56 69 
56 82 
56 83 
56 95 
56 100 
56 108 
56 117 
56 121 
56 129 
56 134 
56 141 
56 147 
56 153 
56 160 
56 164 
57 58 
57 59 
57 60 
57 61 
57 62 
57 63 
57 64 
57 65 
57 70 
57 72 
57 80 
57 83 
57 96 
57 104 
57 109 
57 112 
57 120 
57 122 
57 135 
57 140 
57 148 
57 154 
57 161 
57 165 
58 59 
58 60 
58 61 
58 62 
58 63 
58 64 
58 65 
58 70 
58 71 
58 84 
58 86 
58 94 
58 97 
58 108 
58 110 
58 123 
58 126 
58 136 
58 143 
58 149 
58 155 
58 162 
58 167 
59 60 
59 61 
59 62 
59 63 
59 64 
59 65 
59 72 
59 74 
59 84 
59 85 
59 95 
59 98 
59 106 
59 111 
59 124 
59 128 
59 131 
59 137 
59 150 
59 156 
59 163 
59 168 
60 61 
60 62 
60 63 
60 64 
60 65 
60 67 
60 73 
60 86 
60 91 
60 96 
60 99 
60 107 
60 112 
60 123 
60 125 
60 134 
60 138 
60 144 
60 151 
60 163 
60 164 
61 62 
61 63 
61 64 
61 65 
61 69 
61 74 
61 81 
61 87 
61 93 
61 100 
61 113 
61 115 
61 124 
61 126 
61 139 
61 142 
61 148 
61 152 
61 165 
61 166 
62 63 
62 64 
62 65 
62 71 
62 75 
62 87 
62 88 
62 98 
62 101 
62 114 
62 116 
62 122 
62 127 
62 133 
62 140 
62 145 
62 153 
62 157 
62 166 
63 64 
63 65 
63 66 
63 76 
63 85 
63 89 
63 101 
63 102 
63 110 
63 115 
63 119 
63 128 
63 138 
63 141 
63 147 
63 154 
63 159 
63 167 
64 65 
64 73 
64 77 
64 82 
64 90 
64 102 
64 103 
64 113 
64 116 
64 118 
64 129 
64 132 
64 142 
64 150 
64 155 
64 162 
64 168 
65 77 
65 78 
65 89 
65 91 
65 92 
65 104 
65 114 
65 117 
65 125 
65 130 
65 139 
65 143 
65 149 
65 156 
65 158 
65 169 
66 67 
66 68 
66 69 
66 70 
66 71 
66 72 
66 73 
66 74 
66 75 
66 76 
66 77 
66 78 
66 79 
66 85 
66 92 
66 101 
66 105 
66 110 
66 118 
66 119 
66 131 
66 138 
66 144 
66 147 
66 157 
66 159 
67 68 
67 69 
67 70 
67 71 
67 72 
67 73 
67 74 
67 75 
67 76 
67 77 
67 78 
67 80 
67 91 
67 93 
67 96 
67 106 
67 107 
67 119 
67 123 
67 132 
67 134 
67 144 
67 145 
67 158 
67 163 
68 69 
68 70 
68 71 
68 72 
68 73 
68 74 
68 75 
68 76 
68 77 
68 78 
68 81 
68 83 
68 94 
68 100 
68 107 
68 117 
68 120 
68 129 
68 133 
68 141 
68 146 
68 153 
68 159 
68 164 
69 70 
69 71 
69 72 
69 73 
69 74 
69 75 
69 76 
69 77 
69 78 
69 81 
69 82 
69 93 
69 95 
69 108 
69 115 
69 121 
69 124 
69 134 
69 142 
69 147 
69 148 
69 160 
69 166 
70 71 
70 72 
70 73 
70 74 
70 75 
70 76 
70 77 
70 78 
70 83 
70 86 
70 94 
70 96 
70 108 
70 109 
70 122 
70 126 
70 135 
70 143 
70 148 
70 155 
70 161 
70 167 
71 72 
71 73 
71 74 
71 75 
71 76 
71 77 
71 78 
71 84 
71 87 
71 97 
71 98 
71 110 
71 116 
71 122 
71 123 
71 133 
71 136 
71 145 
71 149 
71 157 
71 162 
72 73 
72 74 
72 75 
72 76 
72 77 
72 78 
72 80 
72 85 
72 98 
72 104 
72 111 
72 112 
72 120 
72 124 
72 137 
72 140 
72 150 
72 154 
72 163 
72 165 
73 74 
73 75 
73 76 
73 77 
73 78 
73 82 
73 86 
73 99 
73 102 
73 112 
73 113 
73 118 
73 125 
73 132 
73 138 
73 150 
73 151 
73 162 
73 164 
74 75 
74 76 
74 77 
74 78 
74 84 
74 87 
74 95 
74 100 
74 106 
74 113 
74 126 
74 128 
74 131 
74 139 
74 152 
74 156 
74 165 
74 168 
75 76 
75 77 
75 78 
75 88 
75 90 
75 97 
75 101 
75 105 
75 114 
75 121 
75 127 
75 135 
75 140 
75 152 
75 153 
75 166 
75 169 
76 77 
76 78 
76 88 
76 89 
76 99 
76 102 
76 111 
76 115 
76 128 
76 130 
76 136 
76 141 
76 146 
76 154 
76 161 
76 167 
77 78 
77 89 
77 90 
77 92 
77 103 
77 114 
77 116 
77 125 
77 129 
77 139 
77 142 
77 149 
77 155 
77 158 
77 168 
78 79 
78 91 
78 103 
78 104 
78 109 
78 117 
78 127 
78 130 
78 137 
78 143 
78 151 
78 156 
78 160 
78 169 
79 80 
79 81 
79 82 
79 83 
79 84 
79 85 
79 86 
79 87 
79 88 
79 89 
79 90 
79 91 
79 92 
79 103 
79 105 
79 109 
79 118 
79 127 
79 131 
79 137 
79 144 
79 151 
79 157 
79 160 
80 81 
80 82 
80 83 
80 84 
80 85 
80 86 
80 87 
80 88 
80 89 
80 90 
80 91 
80 93 
80 104 
80 106 
80 112 
80 119 
80 120 
80 132 
80 140 
80 145 
80 154 
80 158 
80 165 
81 82 
81 83 
81 84 
81 85 
81 86 
81 87 
81 88 
81 89 
81 90 
81 91 
81 93 
81 94 
81 107 
81 115 
81 120 
81 124 
81 133 
81 142 
81 146 
81 148 
81 159 
81 166 
82 83 
82 84 
82 85 
82 86 
82 87 
82 88 
82 89 
82 90 
82 91 
82 95 
82 102 
82 108 
82 113 
82 118 
82 121 
82 132 
82 134 
82 147 
82 150 
82 160 
82 162 
83 84 
83 85 
83 86 
83 87 
83 88 
83 89 
83 90 
83 91 
83 96 
83 100 
83 109 
83 117 
83 122 
83 129 
83 135 
83 141 
83 148 
83 153 
83 161 
83 164 
84 85 
84 86 
84 87 
84 88 
84 89 
84 90 
84 91 
84 95 
84 97 
84 106 
84 110 
84 123 
84 128 
84 131 
84 136 
84 149 
84 156 
84 162 
84 168 
85 86 
85 87 
85 88 
85 89 
85 90 
85 91 
85 98 
85 101 
85 110 
85 111 
85 119 
85 124 
85 137 
85 138 
85 147 
85 150 
85 159 
85 163 
86 87 
86 88 
86 89 
86 90 
86 91 
86 94 
86 99 
86 108 
86 112 
86 125 
86 126 
86 138 
86 143 
86 151 
86 155 
86 164 
86 167 
87 88 
87 89 
87 90 
87 91 
87 98 
87 100 
87 113 
87 116 
87 122 
87 126 
87 133 
87 139 
87 145 
87 152 
87 157 
87 165 
88 89 
88 90 
88 91 
88 99 
88 101 
88 111 
88 114 
88 127 
88 130 
88 136 
88 140 
88 146 
88 153 
88 161 
88 166 
89 90 
89 91 
89 92 
89 102 
89 114 
89 115 
89 125 
89 128 
89 139 
89 141 
89 149 
89 154 
89 158 
89 167 
90 91 
90 97 
90 103 
90 105 
90 116 
90 121 
90 129 
90 135 
90 142 
90 152 
90 155 
90 168 
90 169 
91 96 
91 104 
91 107 
91 117 
91 123 
91 130 
91 134 
91 143 
91 144 
91 156 
91 163 
91 169 
92 93 
92 94 
92 95 
92 96 
92 97 
92 98 
92 99 
92 100 
92 101 
92 102 
92 103 
92 104 
92 105 
92 114 
92 118 
92 125 
92 131 
92 139 
92 144 
92 149 
92 157 
92 158 
93 94 
93 95 
93 96 
93 97 
93 98 
93 99 
93 100 
93 101 
93 102 
93 103 
93 104 
93 106 
93 115 
93 119 
93 124 
93 132 
93 142 
93 145 
93 148 
93 158 
93 166 
94 95 
94 96 
94 97 
94 98 
94 99 
94 100 
94 101 
94 102 
94 103 
94 104 
94 107 
94 108 
94 120 
94 126 
94 133 
94 143 
94 146 
94 155 
94 159 
94 167 
95 96 
95 97 
95 98 
95 99 
95 100 
95 101 
95 102 
95 103 
95 104 
95 106 
95 108 
95 121 
95 128 
95 131 
95 134 
95 147 
95 156 
95 160 
95 168 
96 97 
96 98 
96 99 
96 100 
96 101 
96 102 
96 103 
96 104 
96 107 
96 109 
96 122 
96 123 
96 134 
96 135 
96 144 
96 148 
96 161 
96 163 
97 98 
97 99 
97 100 
97 101 
97 102 
97 103 
97 104 
97 105 
97 110 
97 121 
97 123 
97 135 
97 136 
97 149 
97 152 
97 162 
97 169 
98 99 
98 100 
98 101 
98 102 
98 103 
98 104 
98 111 
98 116 
98 122 
98 124 
98 133 
98 137 
98 145 
98 150 
98 157 
98 163 
99 100 
99 101 
99 102 
99 103 
99 104 
99 111 
99 112 
99 125 
99 130 
99 136 
99 138 
99 146 
99 151 
99 161 
99 164 
100 101 
100 102 
100 103 
100 104 
100 113 
100 117 
100 126 
100 129 
100 139 
100 141 
100 152 
100 153 
100 164 
100 165 
101 102 
101 103 
101 104 
101 110 
101 114 
101 119 
101 127 
101 138 
101 140 
101 147 
101 153 
101 159 
101 166 
102 103 
102 104 
102 113 
102 115 
102 118 
102 128 
102 132 
102 141 
102 150 
102 154 
102 162 
102 167 
103 104 
103 109 
103 116 
103 127 
103 129 
103 137 
103 142 
103 151 
103 155 
103 160 
103 168 
104 112 
104 117 
104 120 
104 130 
104 140 
104 143 
104 154 
104 156 
104 165 
104 169 
105 106 
105 107 
105 108 
105 109 
105 110 
105 111 
105 112 
105 113 
105 114 
105 115 
105 116 
105 117 
105 118 
105 121 
105 131 
105 135 
105 144 
105 152 
105 157 
105 169 
106 107 
106 108 
106 109 
106 110 
106 111 
106 112 
106 113 
106 114 
106 115 
106 116 
106 117 
106 119 
106 128 
106 131 
106 132 
106 145 
106 156 
106 158 
106 168 
107 108 
107 109 
107 110 
107 111 
107 112 
107 113 
107 114 
107 115 
107 116 
107 117 
107 120 
107 123 
107 133 
107 134 
107 144 
107 146 
107 159 
107 163 
108 109 
108 110 
108 111 
108 112 
108 113 
108 114 
108 115 
108 116 
108 117 
108 121 
108 126 
108 134 
108 143 
108 147 
108 155 
108 160 
108 167 
109 110 
109 111 
109 112 
109 113 
109 114 
109 115 
109 116 
109 117 
109 122 
109 127 
109 135 
109 137 
109 148 
109 151 
109 160 
109 161 
110 111 
110 112 
110 113 
110 114 
110 115 
110 116 
110 117 
110 119 
110 123 
110 136 
110 138 
110 147 
110 149 
110 159 
110 162 
111 112 
111 113 
111 114 
111 115 
111 116 
111 117 
111 124 
111 130 
111 136 
111 137 
111 146 
111 150 
111 161 
111 163 
112 113 
112 114 
112 115 
112 116 
112 117 
112 120 
112 125 
112 138 
112 140 
112 151 
112 154 
112 164 
112 165 
113 114 
113 115 
113 116 
113 117 
113 118 
113 126 
113 132 
113 139 
113 150 
113 152 
113 162 
113 165 
114 115 
114 116 
114 117 
114 125 
114 127 
114 139 
114 140 
114 149 
114 153 
114 158 
114 166 
115 116 
115 117 
115 124 
115 128 
115 141 
115 142 
115 148 
115 154 
115 166 
115 167 
116 117 
116 122 
116 129 
116 133 
116 142 
116 145 
116 155 
116 157 
116 168 
117 129 
117 130 
117 141 
117 143 
117 153 
117 156 
117 164 
117 169 
118 119 
118 120 
118 121 
118 122 
118 123 
118 124 
118 125 
118 126 
118 127 
118 128 
118 129 
118 130 
118 131 
118 132 
118 144 
118 150 
118 157 
118 162 
119 120 
119 121 
119 122 
119 123 
119 124 
119 125 
119 126 
119 127 
119 128 
119 129 
119 130 
119 132 
119 138 
119 145 
119 147 
119 158 
119 159 
120 121 
120 122 
120 123 
120 124 
120 125 
120 126 
120 127 
120 128 
120 129 
120 130 
120 133 
120 140 
120 146 
120 154 
120 159 
120 165 
121 122 
121 123 
121 124 
121 125 
121 126 
121 127 
121 128 
121 129 
121 130 
121 134 
121 135 
121 147 
121 152 
121 160 
121 169 
122 123 
122 124 
122 125 
122 126 
122 127 
122 128 
122 129 
122 130 
122 133 
122 135 
122 145 
122 148 
122 157 
122 161 
123 124 
123 125 
123 126 
123 127 
123 128 
123 129 
123 130 
123 134 
123 136 
123 144 
123 149 
123 162 
123 163 
124 125 
124 126 
124 127 
124 128 
124 129 
124 130 
124 137 
124 142 
124 148 
124 150 
124 163 
124 166 
125 126 
125 127 
125 128 
125 129 
125 130 
125 138 
125 139 
125 149 
125 151 
125 158 
125 164 
126 127 
126 128 
126 129 
126 130 
126 139 
126 143 
126 152 
126 155 
126 165 
126 167 
127 128 
127 129 
127 130 
127 137 
127 140 
127 151 
127 153 
127 160 
127 166 
128 129 
128 130 
128 131 
128 141 
128 154 
128 156 
128 167 
128 168 
129 130 
129 141 
129 142 
129 153 
129 155 
129 164 
129 168 
130 136 
130 143 
130 146 
130 156 
130 161 
130 169 
131 132 
131 133 
131 134 
131 135 
131 136 
131 137 
131 138 
131 139 
131 140 
131 141 
131 142 
131 143 
131 144 
131 156 
131 157 
131 168 
132 133 
132 134 
132 135 
132 136 
132 137 
132 138 
132 139 
132 140 
132 141 
132 142 
132 143 
132 145 
132 150 
132 158 
132 162 
133 134 
133 135 
133 136 
133 137 
133 138 
133 139 
133 140 
133 141 
133 142 
133 143 
133 145 
133 146 
133 157 
133 159 
134 135 
134 136 
134 137 
134 138 
134 139 
134 140 
134 141 
134 142 
134 143 
134 144 
134 147 
134 160 
134 163 
135 136 
135 137 
135 138 
135 139 
135 140 
135 141 
135 142 
135 143 
135 148 
135 152 
135 161 
135 169 
136 137 
136 138 
136 139 
136 140 
136 141 
136 142 
136 143 
136 146 
136 149 
136 161 
136 162 
137 138 
137 139 
137 140 
137 141 
137 142 
137 143 
137 150 
137 151 
137 160 
137 163 
138 139 
138 140 
138 141 
138 142 
138 143 
138 147 
138 151 
138 159 
138 164 
139 140 
139 141 
139 142 
139 143 
139 149 
139 152 
139 158 
139 165 
140 141 
140 142 
140 143 
140 153 
140 154 
140 165 
140 166 
141 142 
141 143 
141 153 
141 154 
141 164 
141 167 
142 143 
142 148 
142 155 
142 166 
142 168 
143 155 
143 156 
143 167 
143 169 
144 145 
144 146 
144 147 
144 148 
144 149 
144 150 
144 151 
144 152 
144 153 
144 154 
144 155 
144 156 
144 157 
144 163 
145 146 
145 147 
145 148 
145 149 
145 150 
145 151 
145 152 
145 153 
145 154 
145 155 
145 156 
145 157 
145 158 
146 147 
146 148 
146 149 
146 150 
146 151 
146 152 
146 153 
146 154 
146 155 
146 156 
146 159 
146 161 
147 148 
147 149 
147 150 
147 151 
147 152 
147 153 
147 154 
147 155 
147 156 
147 159 
147 160 
148 149 
148 150 
148 151 
148 152 
148 153 
148 154 
148 155 
148 156 
148 161 
148 166 
149 150 
149 151 
149 152 
149 153 
149 154 
149 155 
149 156 
149 158 
149 162 
150 151 
150 152 
150 153 
150 154 
150 155 
150 156 
150 162 
150 163 
151 152 
151 153 
151 154 
151 155 
151 156 
151 160 
151 164 
152 153 
152 154 
152 155 
152 156 
152 165 
152 169 
153 154 
153 155 
153 156 
153 164 
153 166 
154 155 
154 156 
154 165 
154 167 
155 156 
155 167 
155 168 
156 168 
156 169 
157 158 
157 159 
157 160 
157 161 
157 162 
157 163 
157 164 
157 165 
157 166 
157 167 
157 168 
157 169 
158 159 
158 160 
158 161 
158 162 
158 163 
158 164 
158 165 
158 166 
158 167 
158 168 
158 169 
159 160 
159 161 
159 162 
159 163 
159 164 
159 165 
159 166 
159 167 
159 168 
159 169 
160 161 
160 162 
160 163 
160 164 
160 165 
160 166 
160 167 
160 168 
160 169 
161 162 
161 163 
161 164 
161 165 
161 166 
161 167 
161 168 
161 169 
162 163 
162 164 
162 165 
162 166 
162 167 
162 168 
162 169 
163 164 
163 165 
163 166 
163 167 
163 168 
163 169 
164 165 
164 166 
164 167 
164 168 
164 169 
165 166 
165 167 
165 168 
165 169 
166 167 
166 168 
166 169 
167 168 
167 169 
168 169 
